&FORCE_EVAL
METHOD QS
STRESS_TENSOR NONE
&DFT
BASIS_SET_FILE_NAME BASIS_MOLOPT
BASIS_SET_FILE_NAME BASIS_ADMM
BASIS_SET_FILE_NAME BASIS_ADMM_MOLOPT
BASIS_SET_FILE_NAME BASIS_MOLOPT-HSE06
POTENTIAL_FILE_NAME GTH_POTENTIALS
&MGRID
CUTOFF 800
NGRIDS 5
&END MGRID
&QS
EPS_DEFAULT 1e-13
&END QS
&SCF
SCF_GUESS RESTART
EPS_SCF 1e-06
MAX_SCF 25
ADDED_MOS 0
CHOLESKY RESTORE
&SMEAR .FALSE.
METHOD FERMI_DIRAC
ELECTRONIC_TEMPERATURE 300
&END SMEAR
&DIAGONALIZATION .FALSE.
ALGORITHM STANDARD
&END DIAGONALIZATION
&MIXING
METHOD DIRECT_P_MIXING
ALPHA 0.4
BETA 0.5
NBUFFER 4
&END MIXING
&OUTER_SCF
EPS_SCF 1e-06
MAX_SCF 25
&END OUTER_SCF
&OT
MINIMIZER DIIS
PRECONDITIONER FULL_SINGLE_INVERSE
ENERGY_GAP 0.1
&END OT
&END SCF
&XC
&XC_FUNCTIONAL PBE
&END XC_FUNCTIONAL
&vdW_POTENTIAL
DISPERSION_FUNCTIONAL PAIR_POTENTIAL
&PAIR_POTENTIAL
TYPE DFTD3
PARAMETER_FILE_NAME dftd3.dat
REFERENCE_FUNCTIONAL PBE
&END PAIR_POTENTIAL
&END vdW_POTENTIAL
&END XC
&PRINT
&V_HARTREE_CUBE
ADD_LAST NUMERIC
STRIDE 8 8 1
&END V_HARTREE_CUBE
&E_DENSITY_CUBE
ADD_LAST NUMERIC
STRIDE 8 8 1
&END E_DENSITY_CUBE
&MOMENTS
PERIODIC .TRUE.
FILENAME =berry_phase_moment
&END MOMENTS
&END PRINT
&LOCALIZE
METHOD JACOBI
EPS_LOCALIZATION 0.01
&PRINT
&WANNIER_CENTERS
FILENAME =wannier.xyz
&END WANNIER_CENTERS
&TOTAL_DIPOLE
FILENAME =dipole_wannier
PERIODIC .TRUE.
&END TOTAL_DIPOLE
&END PRINT
&END LOCALIZE
&PERIODIC_EFIELD
INTENSITY 0.0002
POLARISATION 0.0 0.0 1.0
DISPLACEMENT_FIELD .FALSE.
&END PERIODIC_EFIELD
&END DFT
&SUBSYS
&TOPOLOGY
COORD_FILE_FORMAT XYZ
COORD_FILE_NAME coord.xyz
&END TOPOLOGY
&KIND O
POTENTIAL GTH-PBE-q6
BASIS_SET DZVP-MOLOPT-SR-GTH
&END KIND
&KIND H
POTENTIAL GTH-PBE-q1
BASIS_SET DZVP-MOLOPT-SR-GTH
&END KIND
&KIND Pt
POTENTIAL GTH-PBE-q10
BASIS_SET DZVP-A5-Q10-323-MOL-T1-DERIVED_SET-1
&END KIND
&KIND Ag
POTENTIAL GTH-PBE-q11
BASIS_SET DZVP-MOLOPT-SR-GTH
&END KIND
&KIND Na
POTENTIAL GTH-PBE-q9
BASIS_SET DZVP-MOLOPT-SR-GTH
&END KIND
&KIND K
POTENTIAL GTH-PBE-q9
BASIS_SET DZVP-MOLOPT-SR-GTH
&END KIND
&KIND Li
POTENTIAL GTH-PBE-q3
BASIS_SET DZVP-MOLOPT-SR-GTH
&END KIND
&KIND C
POTENTIAL GTH-PBE-q4
BASIS_SET DZVP-MOLOPT-SR-GTH
&END KIND
&KIND N
POTENTIAL GTH-PBE-q5
BASIS_SET DZVP-MOLOPT-SR-GTH
&END KIND
&KIND Cl
POTENTIAL GTH-PBE-q7
BASIS_SET DZVP-MOLOPT-SR-GTH
&END KIND
&KIND F
POTENTIAL GTH-PBE-q7
BASIS_SET DZVP-MOLOPT-SR-GTH
&END KIND
&KIND Mg
POTENTIAL GTH-PBE-q10
BASIS_SET DZVP-MOLOPT-SR-GTH
&END KIND
&KIND Al
POTENTIAL GTH-PBE-q3
BASIS_SET DZVP-MOLOPT-SR-GTH
&END KIND
&CELL
A 12.4200 0.0000 0.0000
B 0.0000 12.4200 0.0000
C 0.0000 0.0000 12.4200
&END CELL
&END SUBSYS
&PRINT
&FORCES ON
&END FORCES
&STRESS_TENSOR OFF
&END STRESS_TENSOR
&END PRINT
&END FORCE_EVAL
&GLOBAL
PROJECT cp2k
&END GLOBAL