variable    DATA_FILE        string @DATA_FILE
variable    N_STEPS          equal @STEPS
variable    TEMP             equal @TEMP
variable    SEED             equal @SEED

variable    TAU_T            equal 0.1
variable    TAU_P            equal 0.5
variable    TIME_CONST       equal 0.1
variable    PRES             equal -1
variable    THERMO_FREQ      equal 100
variable    DUMP_FREQ        equal 100
variable    SAMPLE_FREQ      equal 100

units           metal
atom_style      atomic

boundary p p p
neighbor 2.0 bin
box      tilt large

if "${restart} > 0" then "read_restart md.restart.*" else "read_data ${DATA_FILE} extra/atom/types 0"

mass 1 107.8682  # Ag
mass 2 15.999    # O

pair_style deepmd @DP_MODELS out_freq ${THERMO_FREQ} out_file model_devi.out
pair_coeff * *

if "${restart} == 0" then "velocity all create ${TEMP} ${SEED}"

fix 1 all nvt temp ${TEMP} ${TEMP} ${TAU_T}
fix cll_plumed all plumed plumedfile plumed.in outfile plumed.out

thermo_style custom step temp pe ke etotal press vol lx ly lz xy xz yz
thermo       ${THERMO_FREQ}

# Don't dump element unless you specific the type-element mapping corretly,
# otherwise, it may end up with all element is C (default) and ase.io will fail to parse it
dump         1 all custom ${DUMP_FREQ} dump.lammpstrj id type x y z fx fy fz
restart      10000 md.restart

timestep 0.000500
run      ${N_STEPS} upto
