&GLOBAL
PROJECT DPGEN
&END GLOBAL
&FORCE_EVAL
METHOD QS
STRESS_TENSOR ANALYTICAL
&DFT
BASIS_SET_FILE_NAME BASIS_MOLOPT
POTENTIAL_FILE_NAME GTH_POTENTIALS
CHARGE -1
UKS F
MULTIPLICITY 1
&MGRID
CUTOFF 500
REL_CUTOFF 60
NGRIDS 4
&END MGRID
&QS
EPS_DEFAULT 1e-13
EXTRAPOLATION ASPC
EXTRAPOLATION_ORDER 2
&END QS
&SCF
SCF_GUESS RESTART
EPS_SCF 3e-07
MAX_SCF 21
&OUTER_SCF
EPS_SCF 3e-07
MAX_SCF 50
&END OUTER_SCF
&OT
MINIMIZER CG
PRECONDITIONER FULL_SINGLE_INVERSE
ENERGY_GAP 0.1
&END OT
&PRINT
&RESTART  OFF
&END RESTART
&END PRINT
&END SCF
&XC
&XC_FUNCTIONAL BLYP
&END XC_FUNCTIONAL
&XC_GRID
XC_SMOOTH_RHO NN50
XC_DERIV NN50_SMOOTH
&END XC_GRID
&VDW_POTENTIAL
DISPERSION_FUNCTIONAL PAIR_POTENTIAL
&PAIR_POTENTIAL
TYPE DFTD3
PARAMETER_FILE_NAME dftd3.dat
REFERENCE_FUNCTIONAL BLYP
&END PAIR_POTENTIAL
&END VDW_POTENTIAL
&END XC
&END DFT
&SUBSYS
@include coord_n_cell.inc
&KIND F
BASIS_SET DZVP-MOLOPT-GTH
POTENTIAL GTH-BLYP-q7
&END KIND
&KIND H
BASIS_SET DZVP-MOLOPT-GTH
POTENTIAL GTH-BLYP-q1
&END KIND
&KIND O
BASIS_SET DZVP-MOLOPT-GTH
POTENTIAL GTH-BLYP-q6
&END KIND
&END SUBSYS
&PRINT
&FORCES ON
&END FORCES
&STRESS_TENSOR ON
&END STRESS_TENSOR
&END PRINT
&END FORCE_EVAL