&FORCE_EVAL
  METHOD QS
&DFT
  BASIS_SET_FILE_NAME BASIS_MOLOPT
  BASIS_SET_FILE_NAME BASIS_ADMM
  BASIS_SET_FILE_NAME BASIS_ADMM_MOLOPT
  BASIS_SET_FILE_NAME BASIS_MOLOPT-HSE06
  POTENTIAL_FILE_NAME GTH_POTENTIALS
  CHARGE 0
    &SCF
      SCF_GUESS  RESTART
      MAX_SCF 500
      EPS_SCF 1e-6
      ADDED_MOS 500
      CHOLESKY INVERSE
      &SMEAR  ON
        METHOD FERMI_DIRAC
        ELECTRONIC_TEMPERATURE 300
      &END SMEAR
      &DIAGONALIZATION
        ALGORITHM STANDARD
      &END DIAGONALIZATION
      &MIXING
          METHOD BROYDEN_MIXING
          ALPHA   0.3
          BETA    1.5
          NBROYDEN  12
      &END MIXING
      &PRINT
         &RESTART
           FILENAME =RESTART.wfn
           BACKUP_COPIES 1
         &END RESTART
       &END PRINT
    &END SCF
    &QS
      EPS_DEFAULT 1.0E-13
      EXTRAPOLATION ASPC
      EXTRAPOLATION_ORDER 2
     &END QS
     &MGRID
       NGRIDS 5
       CUTOFF 800
       REL_CUTOFF 60
     &END MGRID
&XC
  &XC_FUNCTIONAL PBE
  &END XC_FUNCTIONAL
  &vdW_POTENTIAL
     DISPERSION_FUNCTIONAL PAIR_POTENTIAL
     &PAIR_POTENTIAL
       TYPE DFTD3
       PARAMETER_FILE_NAME dftd3.dat
       REFERENCE_FUNCTIONAL PBE
     &END PAIR_POTENTIAL
  &END vdW_POTENTIAL
&END XC
&PRINT
  &MO_MOLDEN
    NDIGITS  12 
  &END MO_MOLDEN
&END PRINT
   #&LOCALIZE
   #  METHOD JACOBI
   #  EPS_LOCALIZATION 0.01
   #  RESTART .TRUE.
   #  &PRINT
   #    &LOC_RESTART ON
   #    &END LOC_RESTART
   #    &WANNIER_CENTERS
   #      FILENAME =wannier.xyz
   #    &END WANNIER_CENTERS
   #    &WANNIER_SPREADS
   #      FILENAME =wannier_spread.out
   #    &END WANNIER_SPREADS
   #  &END PRINT
   #&END LOCALIZE
&END DFT
&SUBSYS
  @include @DATA_FILE
&KIND O
  POTENTIAL GTH-PBE-q6
  BASIS_SET DZVP-MOLOPT-SR-GTH
&END KIND
&KIND H
  POTENTIAL GTH-PBE-q1
  BASIS_SET DZVP-MOLOPT-SR-GTH
&END KIND
&KIND C
  POTENTIAL GTH-PBE-q4
  BASIS_SET DZVP-MOLOPT-SR-GTH
&END KIND
&KIND N
  POTENTIAL GTH-PBE-q5
  BASIS_SET DZVP-MOLOPT-SR-GTH
&END KIND
&KIND Pt
  POTENTIAL GTH-PBE-q10
  BASIS_SET DZVP-A5-Q10-323-MOL-T1-DERIVED_SET-1
&END KIND
&KIND Au
  BASIS_SET DZVP-MOLOPT-SR-GTH
  POTENTIAL GTH-PBE-q11
&END KIND
&KIND Ag
  POTENTIAL GTH-PBE-q11
  BASIS_SET DZVP-MOLOPT-SR-GTH
&END KIND
&KIND Cu
  POTENTIAL GTH-PBE-q11
  BASIS_SET DZVP-MOLOPT-SR-GTH
&END KIND
&KIND Li
  POTENTIAL GTH-PBE-q3
  BASIS_SET DZVP-MOLOPT-SR-GTH
&END KIND
&KIND Na
  POTENTIAL GTH-PBE-q9
  BASIS_SET DZVP-MOLOPT-SR-GTH
&END KIND
&KIND K
  POTENTIAL GTH-PBE-q9
  BASIS_SET DZVP-MOLOPT-SR-GTH
&END KIND
&KIND Rb
  POTENTIAL GTH-PBE-q9
  BASIS_SET DZVP-MOLOPT-SR-GTH
&END KIND
&KIND Cs
  POTENTIAL GTH-PBE-q9
  BASIS_SET DZVP-MOLOPT-SR-GTH
&END KIND
&KIND F
  POTENTIAL GTH-PBE-q7
  BASIS_SET DZVP-MOLOPT-SR-GTH
&END KIND
&KIND Cl
  POTENTIAL GTH-PBE-q7
  BASIS_SET DZVP-MOLOPT-SR-GTH
&END KIND
&KIND Br
  POTENTIAL GTH-PBE-q7
  BASIS_SET DZVP-MOLOPT-SR-GTH
&END KIND
&KIND I
  POTENTIAL GTH-PBE-q7
  BASIS_SET DZVP-MOLOPT-SR-GTH
&END KIND
&KIND Mg
  POTENTIAL GTH-PBE-q10
  BASIS_SET DZVP-MOLOPT-SR-GTH
&END KIND
&KIND Al
  POTENTIAL GTH-PBE-q3
  BASIS_SET DZVP-MOLOPT-SR-GTH
&END KIND
&KIND Au
  BASIS_SET DZVP-MOLOPT-SR-GTH
  POTENTIAL GTH-PBE-q11
&END KIND
&END SUBSYS
&PRINT
  &FORCES ON
  &END FORCES
&END PRINT
  STRESS_TENSOR NONE
&END FORCE_EVAL
&GLOBAL
  PROJECT cp2k
&END GLOBAL
