Gamma-point only (suitable for liquid / amorphous systems)
0
Gamma
 1 1 1
 0 0 0
