Au  C  O 
 1.0000000000000000
    25.0000000000000000    0.0000000000000000    0.0000000000000000
     0.0000000000000000   25.0000000000000000    0.0000000000000000
     0.0000000000000000    0.0000000000000000   25.0000000000000000
 Au  C   O  
  38   1   2
Cartesian
  9.4726159364774265  9.5857075390336490 10.9654346184245242
  9.4726159364774265 11.6257075390336500  8.9254346184245250
  9.4726159364774265 11.6257075390336500 13.0054346184245251
  9.4726159364774265 13.6657075390336260 10.9654346184245242
 11.5126159364774239  7.5457075390336499 10.9654346184245242
 13.5526159364773999  7.5457075390336499  8.9254346184245250
 13.5526159364773999  7.5457075390336499 13.0054346184245251
 11.5126159364774239 11.6257075390336500  6.8854346184245259
 13.5526159364773999  9.5857075390336490  6.8854346184245259
 11.5126159364774239  9.5857075390336490  8.9254346184245250
 11.5126159364774239 11.6257075390336500 10.9654346184245242
 13.5526159364773999  9.5857075390336490 10.9654346184245242
 13.5526159364773999 11.6257075390336500  8.9254346184245250
 11.5126159364774239  9.5857075390336490 13.0054346184245251
 11.5126159364774239 11.6257075390336500 15.0454346184245242
 13.5526159364773999  9.5857075390336490 15.0454346184245242
 13.5526159364773999 11.6257075390336500 13.0054346184245251
 13.5526159364773999 13.6657075390336260  6.8854346184245259
 11.5126159364774239 13.6657075390336260  8.9254346184245250
 11.5126159364774239 15.7057075390336252 10.9654346184245242
 13.5526159364773999 13.6657075390336260 10.9654346184245242
 13.5526159364773999 15.7057075390336252  8.9254346184245250
 11.5126159364774239 13.6657075390336260 13.0054346184245251
 13.5526159364773999 13.6657075390336260 15.0454346184245242
 13.5526159364773999 15.7057075390336252 13.0054346184245251
 15.5926159364773991  7.5457075390336499 10.9654346184245242
 15.5926159364773991 11.6257075390336500  6.8854346184245259
 15.5926159364773991  9.5857075390336490  8.9254346184245250
 15.5926159364773991 11.6257075390336500 10.9654346184245242
 17.6326159364774249  9.5857075390336490 10.9654346184245242
 17.6326159364774249 11.6257075390336500  8.9254346184245250
 15.5926159364773991  9.5857075390336490 13.0054346184245251
 15.5926159364773991 11.6257075390336500 15.0454346184245242
 17.6326159364774249 11.6257075390336500 13.0054346184245251
 15.5926159364773991 13.6657075390336260  8.9254346184245250
 15.5926159364773991 15.7057075390336252 10.9654346184245242
 17.6326159364774249 13.6657075390336260 10.9654346184245242
 15.5926159364773991 13.6657075390336260 13.0054346184245251
  9.5777823220931744 14.5957440084530230  9.5361863821784514
 10.1479265997738004 15.5873205776769748  9.9264515421870989
  9.0265189286494252 13.4756828395891262  9.0242152485022000
