Au  C  O 
 1.0000000000000000
    25.0000000000000000    0.0000000000000000    0.0000000000000000
     0.0000000000000000   25.0000000000000000    0.0000000000000000
     0.0000000000000000    0.0000000000000000   25.0000000000000000
 Au  C   O  
  38   1   2
Cartesian
 10.3042414668865501 10.3902994742204999 11.6595596360833991
 10.3042414668865501 12.4302994742205009  9.6195596360833751
 10.3042414668865501 12.4302994742205009 13.6995596360833751
 10.3042414668865501 14.4702994742205000 11.6595596360833991
 12.3442414668865510  8.3502994742205008 11.6595596360833991
 14.3842414668865501  8.3502994742205008  9.6195596360833751
 14.3842414668865501  8.3502994742205008 13.6995596360833751
 12.3442414668865510 12.4302994742205009  7.5795596360833741
 14.3842414668865501 10.3902994742204999  7.5795596360833741
 12.3442414668865510 10.3902994742204999  9.6195596360833751
 12.3442414668865510 12.4302994742205009 11.6595596360833991
 14.3842414668865501 10.3902994742204999 11.6595596360833991
 14.3842414668865501 12.4302994742205009  9.6195596360833751
 12.3442414668865510 10.3902994742204999 13.6995596360833751
 12.3442414668865510 12.4302994742205009 15.7395596360833743
 14.3842414668865501 10.3902994742204999 15.7395596360833743
 14.3842414668865501 12.4302994742205009 13.6995596360833751
 14.3842414668865501 14.4702994742205000  7.5795596360833741
 12.3442414668865510 14.4702994742205000  9.6195596360833751
 12.3442414668865510 16.5102994742204991 11.6595596360833991
 14.3842414668865501 14.4702994742205000 11.6595596360833991
 14.3842414668865501 16.5102994742204991  9.6195596360833751
 12.3442414668865510 14.4702994742205000 13.6995596360833751
 14.3842414668865501 14.4702994742205000 15.7395596360833743
 14.3842414668865501 16.5102994742204991 13.6995596360833751
 16.4242414668865493  8.3502994742205008 11.6595596360833991
 16.4242414668865493 12.4302994742205009  7.5795596360833741
 16.4242414668865493 10.3902994742204999  9.6195596360833751
 16.4242414668865493 12.4302994742205009 11.6595596360833991
 18.4642414668865484 10.3902994742204999 11.6595596360833991
 18.4642414668865484 12.4302994742205009  9.6195596360833751
 16.4242414668865493 10.3902994742204999 13.6995596360833751
 16.4242414668865493 12.4302994742205009 15.7395596360833743
 18.4642414668865484 12.4302994742205009 13.6995596360833751
 16.4242414668865493 14.4702994742205000  9.6195596360833751
 16.4242414668865493 16.5102994742204991 11.6595596360833991
 18.4642414668865484 14.4702994742205000 11.6595596360833991
 16.4242414668865493 14.4702994742205000 13.6995596360833751
 11.4169324675013257 15.3443987486758751  9.6192467479875496
 10.9520635893351752 15.8027733056589987 10.5908222350799743
 12.4928081131870492 14.5034567438606494  7.6320685827818995
