Au  C  O 
 1.0000000000000000
    25.0000000000000000    0.0000000000000000    0.0000000000000000
     0.0000000000000000   25.0000000000000000    0.0000000000000000
     0.0000000000000000    0.0000000000000000   25.0000000000000000
 Au  C   O  
  38   1   2
Cartesian
  7.9162302460916756 10.1034569804787502 11.6093817899563501
  7.9162302460916756 12.1434569804787511  9.5693817899563491
  7.9162302460916756 12.1434569804787511 13.6493817899563741
  7.9162302460916756 14.1834569804787503 11.6093817899563501
  9.9562302460916747  8.0634569804787510 11.6093817899563501
 11.9962302460917005  8.0634569804787510  9.5693817899563491
 11.9962302460917005  8.0634569804787510 13.6493817899563741
  9.9562302460916747 12.1434569804787511  7.5293817899563509
 11.9962302460917005 10.1034569804787502  7.5293817899563509
  9.9562302460916747 10.1034569804787502  9.5693817899563491
  9.9562302460916747 12.1434569804787511 11.6093817899563501
 11.9962302460917005 10.1034569804787502 11.6093817899563501
 11.9962302460917005 12.1434569804787511  9.5693817899563491
  9.9562302460916747 10.1034569804787502 13.6493817899563741
  9.9562302460916747 12.1434569804787511 15.6893817899563501
 11.9962302460917005 10.1034569804787502 15.6893817899563501
 11.9962302460917005 12.1434569804787511 13.6493817899563741
 11.9962302460917005 14.1834569804787503  7.5293817899563509
  9.9562302460916747 14.1834569804787503  9.5693817899563491
  9.9562302460916747 16.2234569804787512 11.6093817899563501
 11.9962302460917005 14.1834569804787503 11.6093817899563501
 11.9962302460917005 16.2234569804787512  9.5693817899563491
  9.9562302460916747 14.1834569804787503 13.6493817899563741
 11.9962302460917005 14.1834569804787503 15.6893817899563501
 11.9962302460917005 16.2234569804787512 13.6493817899563741
 14.0362302460916997  8.0634569804787510 11.6093817899563501
 14.0362302460916997 12.1434569804787511  7.5293817899563509
 14.0362302460916997 10.1034569804787502  9.5693817899563491
 14.0362302460916997 12.1434569804787511 11.6093817899563501
 16.0762302460917006 10.1034569804787502 11.6093817899563501
 16.0762302460917006 12.1434569804787511  9.5693817899563491
 14.0362302460916997 10.1034569804787502 13.6493817899563741
 14.0362302460916997 12.1434569804787511 15.6893817899563501
 16.0762302460917006 12.1434569804787511 13.6493817899563741
 14.0362302460916997 14.1834569804787503  9.5693817899563491
 14.0362302460916997 16.2234569804787512 11.6093817899563501
 16.0762302460917006 14.1834569804787503 11.6093817899563501
 14.0362302460916997 14.1834569804787503 13.6493817899563741
 17.5176919224338263 12.1243406353469751 11.8292137981651493
 17.5202100358877999 12.8907702483951745 12.6019231655075004
 17.4531349418367512 11.2894638128800509 10.9272957322798749
